33 33
23
3 3 6 16
3 4 0 10
5 3 0 23
6 3 6 13
7 3 9 16
8 3 12 13
3 9 0 14
3 10 3 13
13 3 20 13
14 3 15 30
15 3 0 26
17 3 16 16
24 3 5 23
30 3 3 10
33 3 0 0
3 4 0 29
4 4 12 19
6 4 6 19
4 10 29 23
12 4 3 29
14 4 15 26
17 4 16 19
33 7 0 3
